
Gurobi 10.0.3 (linux64, gurobi_cl) logging started Fri Nov 10 18:44:13 2023

Set parameter Username
Set parameter TimeLimit to value 3600
Set parameter LogFile to value "RCPSP_1664.log"
Set parameter Threads to value 32
Academic license - for non-commercial use only - expires 2024-11-06
Using license file /home/jrivera6/gurobi-licenses/v1003/compute-0-36/gurobi.lic

Gurobi Optimizer version 10.0.3 build v10.0.3rc0 (linux64)
Copyright (c) 2023, Gurobi Optimization, LLC

Read MPS format model from file RCPSP_1664.mps
Reading time = 0.11 seconds
RCPSP_1664: 75251 rows, 29890 columns, 237025 nonzeros

CPU model: Intel(R) Xeon(R) Gold 6130 CPU @ 2.10GHz, instruction set [SSE2|AVX|AVX2|AVX512]
Thread count: 32 physical cores, 32 logical processors, using up to 32 threads

Optimize a model with 75251 rows, 29890 columns and 237025 nonzeros
Model fingerprint: 0x93a7bcd4
Variable types: 122 continuous, 29768 integer (29768 binary)
Coefficient statistics:
  Matrix range     [1e+00, 6e+02]
  Objective range  [1e+00, 1e+00]
  Bounds range     [1e+00, 1e+00]
  RHS range        [1e+00, 7e+02]
Presolve removed 12458 rows and 2152 columns (presolve time = 5s) ...
Presolve removed 12458 rows and 2152 columns (presolve time = 10s) ...
Presolve removed 16798 rows and 3618 columns
Presolve time: 13.22s
Presolved: 58453 rows, 26272 columns, 192142 nonzeros
Variable types: 121 continuous, 26151 integer (26151 binary)

Deterministic concurrent LP optimizer: primal and dual simplex (primal and dual model)
Showing first log only...

Root relaxation presolved: 58452 rows, 26273 columns, 192140 nonzeros


Root simplex log...

Iteration    Objective       Primal Inf.    Dual Inf.      Time
       0    1.0315269e+02   5.874835e-03   1.323740e+08     15s
     140    1.0317489e+02   9.886099e-02   1.030701e+08     15s
    3522    1.0300000e+02   0.000000e+00   0.000000e+00     15s
    3522    1.0300000e+02   0.000000e+00   0.000000e+00     16s
Concurrent spin time: 1.13s

Solved with dual simplex (primal model)

Root relaxation: objective 1.030000e+02, 8498 iterations, 2.98 seconds (0.26 work units)
Total elapsed time = 21.05s

    Nodes    |    Current Node    |     Objective Bounds      |     Work
 Expl Unexpl |  Obj  Depth IntInf | Incumbent    BestBd   Gap | It/Node Time

     0     0  103.00000    0  248          -  103.00000      -     -   26s
     0     0  103.00000    0  587          -  103.00000      -     -   31s
     0     0  103.00000    0 1012          -  103.00000      -     -  104s
     0     0  103.00000    0 1117          -  103.00000      -     -  114s
     0     0  103.00000    0 1087          -  103.00000      -     -  115s
     0     0  103.00000    0 1077          -  103.00000      -     -  318s
     0     0  103.00000    0   47          -  103.00000      -     -  334s
     0     0  103.00000    0  101          -  103.00000      -     -  335s
     0     0  103.00000    0  204          -  103.00000      -     -  351s
     0     0  103.00000    0  459          -  103.00000      -     -  354s
     0     0  103.00000    0  393          -  103.00000      -     -  354s
     0     0  103.01428    0  114          -  103.01428      -     -  367s
     0     0  103.01428    0  121          -  103.01428      -     -  367s
     0     0  103.05942    0  393          -  103.05942      -     -  373s
     0     0  103.44872    0  447          -  103.44872      -     -  374s
     0     0  103.53846    0  775          -  103.53846      -     -  381s
     0     0  103.53846    0  744          -  103.53846      -     -  382s
     0     0  103.53846    0  698          -  103.53846      -     -  384s
     0     0  103.53846    0  687          -  103.53846      -     -  384s
     0     0  104.55556    0  836          -  104.55556      -     -  394s
     0     0  104.55556    0  802          -  104.55556      -     -  394s
     0     0  104.55556    0  643          -  104.55556      -     -  397s
     0     0  104.55556    0  637          -  104.55556      -     -  397s
     0     0  104.80000    0  866          -  104.80000      -     -  403s
     0     0  104.80000    0  861          -  104.80000      -     -  403s
     0     0  104.80000    0  693          -  104.80000      -     -  405s
     0     0  104.80000    0  744          -  104.80000      -     -  412s
     0     0  104.93636    0  543          -  104.93636      -     -  415s
     0     0  104.93636    0  533          -  104.93636      -     -  415s
     0     0  104.93636    0  764          -  104.93636      -     -  416s
     0     0  104.93636    0   81          -  104.93636      -     -  434s
     0     0  104.93636    0  184          -  104.93636      -     -  435s
     0     0  104.93636    0  333          -  104.93636      -     -  441s
     0     0  104.93636    0  403          -  104.93636      -     -  443s
     0     0  105.01837    0  240          -  105.01837      -     -  455s
     0     0  105.36842    0  431          -  105.36842      -     -  459s
     0     0  105.36842    0  425          -  105.36842      -     -  459s
     0     0  105.36842    0  269          -  105.36842      -     -  460s
     0     0  105.36842    0  523          -  105.36842      -     -  465s
     0     0  105.36842    0  611          -  105.36842      -     -  467s
     0     0  105.36842    0  606          -  105.36842      -     -  467s
     0     0  105.36842    0  739          -  105.36842      -     -  473s
     0     0  105.36842    0  608          -  105.36842      -     -  474s
     0     0  105.36842    0   15          -  105.36842      -     -  486s
     0     0  105.36842    0  302          -  105.36842      -     -  487s
     0     0  105.36842    0  173          -  105.36842      -     -  494s
     0     0  105.36842    0  171          -  105.36842      -     -  495s
     0     0  105.36842    0  288          -  105.36842      -     -  496s
     0     0  105.36842    0  185          -  105.36842      -     -  554s
     0     0  105.36842    0   26          -  105.36842      -     -  561s
     0     2  105.36842    0   26          -  105.36842      -     -  594s
     1     4  105.70000    1   63          -  105.70000      -  2232  613s
     3     8  106.00000    2   76          -  106.00000      -  1032  625s
     7    11  106.00000    3  135          -  106.00000      -   640  728s
    15    18  106.00000    4  804          -  106.00000      -   444  865s
    23    18  110.00000    4 1003          -  106.00000      -   547  870s
    26    33  106.00000    5  379          -  106.00000      -   544 1122s
    42    33  110.00000    5  656          -  106.00000      -   585 1127s
    44    58  106.00000    6  423          -  106.00000      -   602 1169s
    69    58  109.00000    6  903          -  106.00000      -   600 1175s
    76    89  106.00000    7  279          -  106.00000      -   602 1188s
   108   119  106.00000    8  277          -  106.00000      -   484 1212s
   140   148  106.00000    9  321          -  106.00000      -   389 1220s
   172   179  106.00000   10  268          -  106.00000      -   322 1227s
   204   215  106.00000   11  274          -  106.00000      -   274 1235s
   244   248  106.00000   12  236          -  106.00000      -   233 1343s
   280   279  106.00000   13  250          -  106.00000      -   208 1450s
   318   323  106.00000   13  234          -  106.00000      -   187 1471s
   365   361  106.00000   14  188          -  106.00000      -   167 1478s
   369   361  112.00000   15  448          -  106.00000      -   166 1484s
   410   454  106.00000   15  182          -  106.00000      -   151 1502s
   510   535  106.00000   16  236          -  106.00000      -   126 1823s
   596   652  106.00000   17  205          -  106.00000      -   119 1907s
   729   828  106.00000   20  191          -  106.00000      -   107 2482s
   916  1026  106.00000   25  172          -  106.00000      -  92.9 3091s
  1129  1372  106.00000   30  138          -  106.00000      -  80.9 4143s
  1408  1372  109.00000   35  476          -  106.00000      -  68.5 4146s

Cutting planes:
  Gomory: 11
  Cover: 46
  Implied bound: 134
  Clique: 1
  MIR: 1304
  StrongCG: 14
  RLT: 418
  Relax-and-lift: 151
  PSD: 1

Explored 1511 nodes (242599 simplex iterations) in 4507.12 seconds (80.97 work units)
Thread count was 32 (of 32 available processors)

Solution count 0

Time limit reached
Best objective -, best bound 1.060000000000e+02, gap -

Unable to retrieve attribute 'X'

